NAME: cum50.tsp
TYPE: TSP
COMMENT: User-generated TSP file
DIMENSION: 50
EDGE_WEIGHT_TYPE: EUC_2D
NODE_COORD_SECTION
1 53.0 83.0
2 20.0 11.0
3 10.0 88.0
4 74.0 75.0
5 90.0 29.0
6 68.0 18.0
7 33.0 33.0
8 64.0 54.0
9 43.0 25.0
10 50.0 46.0
11 50.0 41.0
12 56.0 98.0
13 55.0 53.0
14 91.0 95.0
15 55.0 82.0
16 18.0 37.0
17 35.0 47.0
18 97.0 50.0
19 61.0 16.0
20 14.0 74.0
21 74.0 82.0
22 49.0 8.0
23 99.0 86.0
24 5.0 6.0
25 8.0 22.0
26 60.0 43.0
27 67.0 37.0
28 8.0 86.0
29 15.0 80.0
30 40.0 92.0
31 14.0 27.0
32 21.0 93.0
33 56.0 77.0
34 39.0 27.0
35 13.0 64.0
36 91.0 38.0
37 48.0 87.0
38 18.0 45.0
39 60.0 67.0
40 39.0 49.0
41 3.0 7.0
42 20.0 68.0
43 20.0 95.0
44 95.0 88.0
45 26.0 92.0
46 9.0 82.0
47 96.0 21.0
48 57.0 6.0
49 27.0 14.0
50 57.0 60.0
EOF

